NAME : XML100_3152_24
DIMENSION : 101
NB_CLUSTERS : 30
CLUSTERING_ALG : DBSCAN
CLUSTERING_PARAMS : eps(52), minSamples(3)
CLUSTERS
1 0
2 1 2 43 57 77
3 4 74 81 99
4 8 16 23 33 41 72
5 27 47 83
6 29 30 36 54 58 66 95
7 22 26 59 63 80 86 97
8 25 76
9 7 56 67
10 18 21 68
11 88 98
12 13 45 71
13 3 46 48 51
14 62 75
15 39 44 70 82
16 34 89
17 40 64 94
18 9 17 19 20 24 31 96
19 42 49 53 60 78
20 55 87
21 15 69
22 5 12 50 84
23 6 14 32
24 10 28 61
25 11 35
26 79 92
27 37 100
28 38 90
29 52 85 91 93
30 65 73
EOF